
******************************************************************************
This program contains Ipopt, a library for large-scale nonlinear optimization.
 Ipopt is released as open source code under the Eclipse Public License (EPL).
         For more information visit http://projects.coin-or.org/Ipopt
******************************************************************************

This is Ipopt version 3.12.6, running with linear solver ma57.

Number of nonzeros in equality constraint Jacobian...:      234
Number of nonzeros in inequality constraint Jacobian.:        0
Number of nonzeros in Lagrangian Hessian.............:      198

Total number of variables............................:      132
                     variables with only lower bounds:        0
                variables with lower and upper bounds:      132
                     variables with only upper bounds:        0
Total number of equality constraints.................:       48
Total number of inequality constraints...............:        0
        inequality constraints with only lower bounds:        0
   inequality constraints with lower and upper bounds:        0
        inequality constraints with only upper bounds:        0

iter    objective    inf_pr   inf_du lg(mu)  ||d||  lg(rg) alpha_du alpha_pr  ls
   0 -1.9490543e-01 2.16e+00 6.67e-03  -1.0 0.00e+00    -  0.00e+00 0.00e+00   0
   1 -1.8708594e-01 1.53e+00 1.19e+00  -1.0 1.14e+01    -  1.36e-01 2.92e-01f  1
   2 -1.5893124e-01 8.50e-01 6.98e-01  -1.0 8.47e+00    -  5.25e-01 4.44e-01f  1
   3 -9.1129360e-02 7.34e-03 7.94e-01  -1.0 5.88e+00    -  6.24e-01 1.00e+00f  1
   4 -4.7876080e-02 5.85e-03 5.27e-02  -1.0 3.12e+00    -  9.50e-01 1.00e+00f  1
   5  3.6242729e-01 7.89e-03 5.08e-03  -1.0 1.41e+01    -  9.56e-01 9.40e-01f  1
   6  3.0671912e-01 1.42e-04 1.24e-02  -1.7 3.29e+00    -  9.68e-01 1.00e+00h  1
   7  6.8935195e-02 8.10e-04 2.06e-02  -2.5 6.58e+00    -  8.17e-01 1.00e+00f  1
   8 -7.4131517e-02 5.93e-03 1.16e-02  -3.8 5.83e+00    -  6.57e-01 1.00e+00f  1
   9 -1.1955835e-01 5.92e-04 1.87e-03  -3.8 2.63e+00    -  8.59e-01 1.00e+00h  1
iter    objective    inf_pr   inf_du lg(mu)  ||d||  lg(rg) alpha_du alpha_pr  ls
  10 -1.4156605e-01 6.50e-03 1.90e-04  -3.8 1.37e+00    -  9.13e-01 9.29e-01h  1
  11 -1.4440212e-01 1.95e-03 2.63e-04  -3.8 5.02e-01    -  1.00e+00 8.22e-01h  1
  12 -1.4491615e-01 6.43e-04 4.50e-06  -3.8 1.62e-01    -  1.00e+00 1.00e+00f  1
  13 -1.5140108e-01 5.83e-03 3.92e-04  -5.7 6.82e-01    -  7.22e-01 9.48e-01h  1
  14 -1.5198513e-01 1.68e-02 2.85e-04  -5.7 2.74e+00    -  2.87e-01 2.69e-01h  1
  15 -1.5250515e-01 7.54e-03 4.12e-04  -5.7 3.67e-01    -  9.42e-01 6.21e-01h  1
  16 -1.5283153e-01 1.92e-04 6.43e-07  -5.7 1.61e-01    -  1.00e+00 1.00e+00h  1
  17 -1.5283565e-01 2.54e-06 4.20e-09  -5.7 2.52e-02    -  1.00e+00 1.00e+00h  1
  18 -1.5292666e-01 2.01e-05 1.58e-06  -8.6 3.52e-02    -  8.92e-01 9.14e-01h  1
  19 -1.5293573e-01 4.73e-07 8.72e-07  -8.6 8.97e-03    -  9.42e-01 1.00e+00h  1
iter    objective    inf_pr   inf_du lg(mu)  ||d||  lg(rg) alpha_du alpha_pr  ls
  20 -1.5293579e-01 6.09e-09 9.28e-12  -8.6 1.26e-03    -  1.00e+00 1.00e+00h  1

Number of Iterations....: 20

                                   (scaled)                 (unscaled)
Objective...............:  -1.5293579466163279e-01   -1.5293579466163279e-01
Dual infeasibility......:   9.2809313064250709e-12    9.2809313064250709e-12
Constraint violation....:   6.0927633840912598e-09    6.0927633840912598e-09
Complementarity.........:   6.8305776475862997e-09    6.8305776475862997e-09
Overall NLP error.......:   6.8305776475862997e-09    6.8305776475862997e-09


Number of objective function evaluations             = 21
Number of objective gradient evaluations             = 21
Number of equality constraint evaluations            = 21
Number of inequality constraint evaluations          = 0
Number of equality constraint Jacobian evaluations   = 21
Number of inequality constraint Jacobian evaluations = 0
Number of Lagrangian Hessian evaluations             = 20
Total CPU secs in IPOPT (w/o function evaluations)   =      0.020
Total CPU secs in NLP function evaluations           =      0.000

EXIT: Optimal Solution Found.

************************ CUTEst statistics ************************


 Package used            :  IPOPT
 Problem                 :  ZAMB2-8   
 # variables             =             138
 # constraints           =              48
 # objective functions   =        0.4300000E+02
 # objective gradients   =        0.2200000E+02
 # objective Hessians    =        0.2100000E+02
 # Hessian-vector prdct  =        0.0000000E+00
 # constraints functions =        0.4400000E+02
 # constraints gradients =        0.2300000E+02
 # constraints Hessians  =        0.2100000E+02
 Exit code               =               0
 Final f                 =  -0.1529358E+00
 Set up time             =            0.00 seconds
 Solve time              =            0.04 seconds


******************************************************************

System Time =       0.0099999998 s.
